40
420
20
0 1
0 2
0 6
0 8
0 9
0 11
0 12
0 13
0 14
0 16
0 17
0 18
0 20
0 22
0 26
0 27
0 28
0 29
0 33
1 3
1 4
1 6
1 7
1 8
1 10
1 13
1 15
1 16
1 18
1 23
1 25
1 26
1 28
1 29
1 30
1 31
1 32
1 34
1 36
1 37
2 3
2 5
2 7
2 12
2 13
2 14
2 15
2 17
2 20
2 21
2 22
2 24
2 28
2 29
2 30
2 32
2 33
2 34
2 35
2 36
2 37
3 4
3 5
3 8
3 9
3 11
3 12
3 13
3 14
3 15
3 16
3 17
3 20
3 21
3 22
3 26
3 30
3 32
3 34
3 38
3 39
4 5
4 6
4 9
4 16
4 18
4 19
4 20
4 21
4 25
4 27
4 29
4 36
4 37
4 38
4 39
5 9
5 10
5 11
5 13
5 15
5 18
5 20
5 22
5 24
5 27
5 29
5 31
5 35
5 37
5 38
6 7
6 10
6 11
6 12
6 13
6 14
6 16
6 20
6 21
6 22
6 23
6 24
6 26
6 28
6 30
6 31
6 32
6 34
6 35
6 36
6 37
6 39
7 9
7 12
7 14
7 15
7 16
7 19
7 20
7 22
7 23
7 27
7 30
7 32
7 36
7 39
8 11
8 15
8 16
8 18
8 19
8 20
8 21
8 27
8 28
8 29
8 30
8 32
8 33
8 36
8 38
9 10
9 11
9 12
9 13
9 14
9 15
9 17
9 19
9 20
9 25
9 26
9 27
9 28
9 29
9 32
9 34
9 35
9 36
9 39
10 13
10 14
10 16
10 19
10 20
10 21
10 25
10 26
10 29
10 30
10 31
10 33
10 34
10 35
10 37
10 38
11 12
11 16
11 19
11 20
11 21
11 23
11 24
11 25
11 26
11 27
11 32
11 33
11 34
11 37
11 39
12 13
12 15
12 16
12 17
12 19
12 20
12 22
12 26
12 27
12 29
12 34
12 35
12 36
12 37
12 38
12 39
13 15
13 16
13 18
13 19
13 23
13 25
13 26
13 29
13 30
13 31
13 32
13 34
13 35
13 36
14 17
14 19
14 20
14 22
14 26
14 29
14 30
14 34
14 35
14 36
14 37
14 38
15 17
15 19
15 21
15 23
15 24
15 25
15 26
15 33
15 34
15 35
15 36
15 37
16 17
16 19
16 21
16 22
16 23
16 24
16 25
16 29
16 30
16 31
16 36
16 38
17 19
17 21
17 22
17 24
17 25
17 26
17 27
17 30
17 32
17 33
17 34
17 35
17 37
18 22
18 24
18 26
18 27
18 31
18 32
18 35
18 37
19 20
19 21
19 23
19 25
19 26
19 28
19 29
19 30
19 31
19 32
19 33
19 36
19 38
20 21
20 23
20 24
20 27
20 32
20 35
20 36
20 37
20 39
21 23
21 24
21 25
21 26
21 27
21 28
21 30
21 31
21 34
21 35
21 37
21 38
22 23
22 24
22 25
22 26
22 27
22 28
22 32
22 34
22 35
22 37
22 39
23 24
23 25
23 26
23 27
23 28
23 30
23 32
23 35
23 36
23 37
23 39
24 29
24 30
24 31
24 32
24 33
24 34
24 36
24 37
25 26
25 27
25 30
25 33
25 36
25 38
26 27
26 29
26 30
26 31
26 36
26 38
27 28
27 29
27 30
27 31
27 32
27 38
27 39
28 29
28 31
28 33
28 35
28 36
28 39
29 31
29 32
29 34
29 35
29 38
29 39
30 32
30 35
30 36
30 37
30 38
30 39
31 32
31 33
31 35
31 37
31 38
31 39
32 33
32 34
32 35
32 37
32 39
33 36
33 38
33 39
34 39
35 36
36 37
37 38
37 39
38 39
8 36
1 35
9 23
18 27
17 19
6 38
22 24
13 32
7 20
31 37
28 34
0 5
10 25
4 30
33 39
15 29
14 21
12 26
2 3
11 16
